benchmarks/bfuzz0/2198827719057232552486139931116218723.smt2
(set-logic QF_FP)
(declare-const x0 (_ FloatingPoint 8 24))
(declare-const x1 (_ FloatingPoint 8 24))
(declare-const x2 (_ FloatingPoint 8 24))
(declare-const x3 (_ FloatingPoint 8 24))
(declare-const x4 (_ FloatingPoint 8 24))
(declare-const x5 (_ FloatingPoint 8 24))
(declare-const x6 (_ FloatingPoint 8 24))
(declare-const x7 (_ FloatingPoint 8 24))
(declare-const x8 (_ FloatingPoint 8 24))
(declare-const x9 (_ FloatingPoint 8 24))
(declare-const x10 (_ FloatingPoint 8 24))
(declare-const x11 (_ FloatingPoint 8 24))
(declare-const x12 (_ FloatingPoint 8 24))
(declare-const x13 (_ FloatingPoint 8 24))
(declare-const x14 (_ FloatingPoint 8 24))
(declare-const x15 (_ FloatingPoint 8 24))
(declare-const x16 (_ FloatingPoint 8 24))
(declare-const x17 (_ FloatingPoint 8 24))
(declare-const x18 (_ FloatingPoint 8 24))
(declare-const x19 (_ FloatingPoint 8 24))
(declare-const x20 (_ FloatingPoint 8 24))
(assert (fp.lt (fp.add RNE x4 x12) (fp.sub RNE x16 x15)))
(assert (fp.eq (fp.sub RNE x15 x0) (fp.sub RNE x15 x4)))
(assert (fp.geq (fp.neg x11) (fp.mul RNE x1 x8)))
(assert (fp.leq (fp.sub RNE x14 x5) (fp.add RNE x0 x15)))
(assert (fp.eq (fp.div RNE x20 x1) (fp.add RNE x18 x19)))
(assert (fp.gt (fp.add RNE x19 x8) (fp.add RNE x12 x20)))
(assert (fp.lt (fp.add RNE x12 x16) (fp.add RNE x1 x11)))
(assert (fp.geq (fp.neg x16) (fp.add RNE x17 x17)))
(assert (fp.gt (fp.neg x3) (fp.mul RNE x0 x17)))
(assert (fp.leq (fp.add RNE x19 x0) (fp.neg x8)))
(assert (fp.lt (fp.mul RNE x11 x16) (fp.mul RNE x9 x12)))
(assert (fp.gt (fp.add RNE x4 x13) (fp.div RNE x3 x9)))
(assert (fp.lt (fp.sub RNE x1 x3) (fp.add RNE x17 x15)))
(assert (fp.lt (fp.add RNE x14 x8) (fp.add RNE x16 x18)))
(assert (fp.eq (fp.add RNE x8 x18) (fp.sub RNE x8 x20)))
(assert (fp.leq (fp.add RNE x5 x18) (fp.div RNE x10 x8)))
(check-sat)
