db/data/2198827719057232552486139931116218723.z3.out
sat
-------------------
118.724319176
